(set-logic QF_LIA)
(declare-fun x0 () Int)
(declare-fun x1 () Int)
(declare-fun x2 () Int)
(declare-fun x3 () Int)
(declare-fun x4 () Int)
(declare-fun x5 () Int)
(declare-fun x6 () Int)
(declare-fun x7 () Int)
(declare-fun x8 () Int)
(declare-fun x9 () Int)
(declare-fun A0 () Bool)
(declare-fun A1 () Bool)
(declare-fun A2 () Bool)
(declare-fun A3 () Bool)
(declare-fun A4 () Bool)
(declare-fun A5 () Bool)
(declare-fun A6 () Bool)
(declare-fun A7 () Bool)
(declare-fun A8 () Bool)
(declare-fun A9 () Bool)
(assert (let ((.def_0 (* 1 x5))) (let ((.def_1 (< .def_0 (- 1)))) (let ((.def_2 (not .def_1))) (let ((.def_3 (* (- 1) x3))) (let ((.def_4 (< .def_3 1))) (let ((.def_5 (not .def_4))) (let ((.def_6 (or .def_5 .def_2))) (let ((.def_7 (not .def_6))) (let ((.def_8 (= A9 A3))) (let ((.def_9 (and .def_8 .def_7))) (let ((.def_10 (not .def_9))) (let ((.def_11 (not A6))) (let ((.def_12 (* (- 1) x2))) (let ((.def_13 (* 1 x3))) (let ((.def_14 (+ .def_13 .def_12))) (let ((.def_15 (< .def_14 1))) (let ((.def_16 (not .def_15))) (let ((.def_17 (or .def_16 .def_11))) (let ((.def_18 (* 1 x0))) (let ((.def_19 (+ .def_12 .def_18))) (let ((.def_20 (< .def_19 1))) (let ((.def_21 (= A5 .def_20))) (let ((.def_22 (not .def_21))) (let ((.def_23 (or .def_22 .def_17))) (let ((.def_24 (not .def_23))) (let ((.def_25 (= .def_24 .def_10))) (let ((.def_26 (not .def_25))) (let ((.def_27 (* 1 x1))) (let ((.def_28 (< .def_27 (- 1)))) (let ((.def_29 (not .def_28))) (let ((.def_30 (not A5))) (let ((.def_31 (and .def_30 .def_29))) (let ((.def_32 (not .def_31))) (let ((.def_33 (* (- 1) x9))) (let ((.def_34 (< .def_33 (- 1)))) (let ((.def_35 (not .def_34))) (let ((.def_36 (= A3 .def_35))) (let ((.def_37 (not .def_36))) (let ((.def_38 (and .def_37 .def_32))) (let ((.def_39 (not .def_38))) (let ((.def_40 (not A4))) (let ((.def_41 (or .def_40 .def_30))) (let ((.def_42 (not A9))) (let ((.def_43 (= A9 .def_42))) (let ((.def_44 (not .def_43))) (let ((.def_45 (or .def_44 .def_41))) (let ((.def_46 (or .def_45 .def_39))) (let ((.def_47 (or .def_46 .def_26))) (let ((.def_48 (* (- 1) x4))) (let ((.def_49 (< .def_48 1))) (let ((.def_50 (< .def_3 (- 1)))) (let ((.def_51 (not .def_50))) (let ((.def_52 (and .def_51 .def_49))) (let ((.def_53 (not .def_52))) (let ((.def_54 (and A2 A9))) (let ((.def_55 (not .def_54))) (let ((.def_56 (= .def_55 .def_53))) (let ((.def_57 (not .def_56))) (let ((.def_58 (* (- 1) x7))) (let ((.def_59 (< .def_58 1))) (let ((.def_60 (not .def_59))) (let ((.def_61 (* (- 1) x5))) (let ((.def_62 (< .def_61 1))) (let ((.def_63 (not .def_62))) (let ((.def_64 (or .def_63 .def_60))) (let ((.def_65 (not .def_64))) (let ((.def_66 (and A1 A1))) (let ((.def_67 (or .def_66 .def_65))) (let ((.def_68 (not .def_67))) (let ((.def_69 (and .def_68 .def_57))) (let ((.def_70 (and A4 .def_40))) (let ((.def_71 (+ .def_58 .def_12))) (let ((.def_72 (< .def_71 1))) (let ((.def_73 (not .def_72))) (let ((.def_74 (or .def_62 .def_73))) (let ((.def_75 (and .def_74 .def_70))) (let ((.def_76 (not A8))) (let ((.def_77 (= .def_28 .def_76))) (let ((.def_78 (not .def_77))) (let ((.def_79 (+ .def_33 .def_13))) (let ((.def_80 (< .def_79 1))) (let ((.def_81 (and A9 .def_80))) (let ((.def_82 (and .def_81 .def_78))) (let ((.def_83 (not .def_82))) (let ((.def_84 (and .def_83 .def_75))) (let ((.def_85 (not .def_84))) (let ((.def_86 (or .def_85 .def_69))) (let ((.def_87 (or .def_86 .def_47))) (let ((.def_88 (not .def_87))) (let ((.def_89 (< .def_58 (- 1)))) (let ((.def_90 (not .def_89))) (let ((.def_91 (or .def_90 .def_76))) (let ((.def_92 (< .def_13 1))) (let ((.def_93 (not .def_92))) (let ((.def_94 (* 1 x8))) (let ((.def_95 (< .def_94 1))) (let ((.def_96 (not .def_95))) (let ((.def_97 (or .def_96 .def_93))) (let ((.def_98 (and .def_97 .def_91))) (let ((.def_99 (and A6 A8))) (let ((.def_100 (* 1 x6))) (let ((.def_101 (< .def_100 1))) (let ((.def_102 (* (- 1) x1))) (let ((.def_103 (+ .def_33 .def_102))) (let ((.def_104 (< .def_103 (- 1)))) (let ((.def_105 (or .def_104 .def_101))) (let ((.def_106 (not .def_105))) (let ((.def_107 (and .def_106 .def_99))) (let ((.def_108 (and .def_107 .def_98))) (let ((.def_109 (or .def_11 .def_5))) (let ((.def_110 (not .def_109))) (let ((.def_111 (not A7))) (let ((.def_112 (+ .def_94 .def_18))) (let ((.def_113 (< .def_112 1))) (let ((.def_114 (not .def_113))) (let ((.def_115 (and .def_114 .def_111))) (let ((.def_116 (and .def_115 .def_110))) (let ((.def_117 (not A0))) (let ((.def_118 (or A3 .def_117))) (let ((.def_119 (not .def_118))) (let ((.def_120 (* 1 x9))) (let ((.def_121 (< .def_120 1))) (let ((.def_122 (not .def_121))) (let ((.def_123 (or .def_76 .def_122))) (let ((.def_124 (not .def_123))) (let ((.def_125 (= .def_124 .def_119))) (let ((.def_126 (or .def_125 .def_116))) (let ((.def_127 (or .def_126 .def_108))) (let ((.def_128 (not .def_127))) (let ((.def_129 (+ .def_102 .def_0))) (let ((.def_130 (< .def_129 1))) (let ((.def_131 (not .def_130))) (let ((.def_132 (+ .def_100 .def_27))) (let ((.def_133 (< .def_132 1))) (let ((.def_134 (and .def_133 .def_131))) (let ((.def_135 (not .def_134))) (let ((.def_136 (or .def_40 .def_76))) (let ((.def_137 (not .def_136))) (let ((.def_138 (or .def_137 .def_135))) (let ((.def_139 (* (- 1) x6))) (let ((.def_140 (+ .def_120 .def_139))) (let ((.def_141 (< .def_140 1))) (let ((.def_142 (not .def_141))) (let ((.def_143 (and A5 .def_142))) (let ((.def_144 (not .def_143))) (let ((.def_145 (* 1 x7))) (let ((.def_146 (* 1 x2))) (let ((.def_147 (+ .def_146 .def_145))) (let ((.def_148 (< .def_147 1))) (let ((.def_149 (+ .def_58 .def_120))) (let ((.def_150 (< .def_149 1))) (let ((.def_151 (or .def_150 .def_148))) (let ((.def_152 (and .def_151 .def_144))) (let ((.def_153 (and .def_152 .def_138))) (let ((.def_154 (not .def_153))) (let ((.def_155 (* (- 1) x8))) (let ((.def_156 (+ .def_33 .def_155))) (let ((.def_157 (< .def_156 1))) (let ((.def_158 (< .def_12 1))) (let ((.def_159 (not .def_158))) (let ((.def_160 (and .def_159 .def_157))) (let ((.def_161 (not .def_160))) (let ((.def_162 (+ .def_12 .def_3))) (let ((.def_163 (< .def_162 1))) (let ((.def_164 (not .def_163))) (let ((.def_165 (not A2))) (let ((.def_166 (or .def_165 .def_164))) (let ((.def_167 (not .def_166))) (let ((.def_168 (or .def_167 .def_161))) (let ((.def_169 (not .def_168))) (let ((.def_170 (* 1 x4))) (let ((.def_171 (+ .def_33 .def_170))) (let ((.def_172 (< .def_171 (- 1)))) (let ((.def_173 (or .def_172 .def_42))) (let ((.def_174 (* (- 1) x0))) (let ((.def_175 (+ .def_146 .def_174))) (let ((.def_176 (< .def_175 1))) (let ((.def_177 (not .def_176))) (let ((.def_178 (or .def_177 .def_40))) (let ((.def_179 (not .def_178))) (let ((.def_180 (or .def_179 .def_173))) (let ((.def_181 (and .def_180 .def_169))) (let ((.def_182 (= .def_181 .def_154))) (let ((.def_183 (not .def_182))) (let ((.def_184 (and .def_183 .def_128))) (let ((.def_185 (and .def_184 .def_88))) (let ((.def_186 (or A5 .def_11))) (let ((.def_187 (not .def_186))) (let ((.def_188 (and .def_95 .def_76))) (let ((.def_189 (not .def_188))) (let ((.def_190 (= .def_189 .def_187))) (let ((.def_191 (= A0 A5))) (let ((.def_192 (not .def_191))) (let ((.def_193 (+ .def_102 .def_58))) (let ((.def_194 (< .def_193 (- 1)))) (let ((.def_195 (not .def_194))) (let ((.def_196 (and .def_195 A5))) (let ((.def_197 (= .def_196 .def_192))) (let ((.def_198 (not .def_197))) (let ((.def_199 (and .def_198 .def_190))) (let ((.def_200 (or A4 .def_165))) (let ((.def_201 (or .def_76 .def_111))) (let ((.def_202 (not .def_201))) (let ((.def_203 (and .def_202 .def_200))) (let ((.def_204 (not .def_203))) (let ((.def_205 (< .def_94 (- 1)))) (let ((.def_206 (and .def_11 .def_205))) (let ((.def_207 (not .def_206))) (let ((.def_208 (< .def_33 1))) (let ((.def_209 (< .def_120 (- 1)))) (let ((.def_210 (not .def_209))) (let ((.def_211 (and .def_210 .def_208))) (let ((.def_212 (not .def_211))) (let ((.def_213 (or .def_212 .def_207))) (let ((.def_214 (not .def_213))) (let ((.def_215 (or .def_214 .def_204))) (let ((.def_216 (not .def_215))) (let ((.def_217 (or .def_216 .def_199))) (let ((.def_218 (< .def_18 (- 1)))) (let ((.def_219 (and .def_218 .def_42))) (let ((.def_220 (< .def_103 1))) (let ((.def_221 (not .def_220))) (let ((.def_222 (or A2 .def_221))) (let ((.def_223 (not .def_222))) (let ((.def_224 (and .def_223 .def_219))) (let ((.def_225 (< .def_155 (- 1)))) (let ((.def_226 (not A1))) (let ((.def_227 (and .def_226 .def_225))) (let ((.def_228 (not .def_227))) (let ((.def_229 (< .def_102 1))) (let ((.def_230 (or .def_229 .def_96))) (let ((.def_231 (not .def_230))) (let ((.def_232 (and .def_231 .def_228))) (let ((.def_233 (not .def_232))) (let ((.def_234 (or .def_233 .def_224))) (let ((.def_235 (< .def_100 (- 1)))) (let ((.def_236 (or A7 .def_235))) (let ((.def_237 (not .def_236))) (let ((.def_238 (+ .def_48 .def_120))) (let ((.def_239 (< .def_238 (- 1)))) (let ((.def_240 (not A3))) (let ((.def_241 (and .def_240 .def_239))) (let ((.def_242 (not .def_241))) (let ((.def_243 (or .def_242 .def_237))) (let ((.def_244 (or .def_225 .def_34))) (let ((.def_245 (or .def_30 .def_40))) (let ((.def_246 (not .def_245))) (let ((.def_247 (and .def_246 .def_244))) (let ((.def_248 (not .def_247))) (let ((.def_249 (and .def_248 .def_243))) (let ((.def_250 (and .def_249 .def_234))) (let ((.def_251 (or .def_250 .def_217))) (let ((.def_252 (or .def_226 .def_165))) (let ((.def_253 (not .def_252))) (let ((.def_254 (and A5 .def_76))) (let ((.def_255 (= .def_254 .def_253))) (let ((.def_256 (+ .def_155 .def_48))) (let ((.def_257 (< .def_256 (- 1)))) (let ((.def_258 (= .def_257 A7))) (let ((.def_259 (< .def_146 (- 1)))) (let ((.def_260 (and .def_259 A9))) (let ((.def_261 (or .def_260 .def_258))) (let ((.def_262 (not .def_261))) (let ((.def_263 (or .def_262 .def_255))) (let ((.def_264 (not .def_263))) (let ((.def_265 (= .def_229 .def_117))) (let ((.def_266 (not .def_265))) (let ((.def_267 (or .def_80 .def_122))) (let ((.def_268 (or .def_267 .def_266))) (let ((.def_269 (not .def_268))) (let ((.def_270 (+ .def_27 .def_94))) (let ((.def_271 (< .def_270 (- 1)))) (let ((.def_272 (or .def_271 .def_42))) (let ((.def_273 (+ .def_33 .def_27))) (let ((.def_274 (< .def_273 (- 1)))) (let ((.def_275 (+ .def_174 .def_102))) (let ((.def_276 (< .def_275 1))) (let ((.def_277 (not .def_276))) (let ((.def_278 (or .def_277 .def_274))) (let ((.def_279 (not .def_278))) (let ((.def_280 (and .def_279 .def_272))) (let ((.def_281 (not .def_280))) (let ((.def_282 (and .def_281 .def_269))) (let ((.def_283 (or .def_282 .def_264))) (let ((.def_284 (not .def_283))) (let ((.def_285 (+ .def_18 .def_61))) (let ((.def_286 (< .def_285 (- 1)))) (let ((.def_287 (not .def_286))) (let ((.def_288 (< .def_139 (- 1)))) (let ((.def_289 (not .def_288))) (let ((.def_290 (or .def_289 .def_287))) (let ((.def_291 (not .def_290))) (let ((.def_292 (+ .def_155 .def_174))) (let ((.def_293 (< .def_292 (- 1)))) (let ((.def_294 (= .def_293 .def_289))) (let ((.def_295 (not .def_294))) (let ((.def_296 (or .def_295 .def_291))) (let ((.def_297 (not .def_296))) (let ((.def_298 (or A9 .def_226))) (let ((.def_299 (+ .def_146 .def_0))) (let ((.def_300 (< .def_299 1))) (let ((.def_301 (not .def_300))) (let ((.def_302 (< .def_12 (- 1)))) (let ((.def_303 (and .def_302 .def_301))) (let ((.def_304 (not .def_303))) (let ((.def_305 (or .def_304 .def_298))) (let ((.def_306 (or .def_305 .def_297))) (let ((.def_307 (not .def_306))) (let ((.def_308 (+ .def_146 .def_33))) (let ((.def_309 (< .def_308 (- 1)))) (let ((.def_310 (not .def_309))) (let ((.def_311 (or A0 .def_310))) (let ((.def_312 (+ .def_100 .def_48))) (let ((.def_313 (< .def_312 1))) (let ((.def_314 (not .def_313))) (let ((.def_315 (and .def_314 A3))) (let ((.def_316 (and .def_315 .def_311))) (let ((.def_317 (not .def_316))) (let ((.def_318 (+ .def_13 .def_27))) (let ((.def_319 (< .def_318 1))) (let ((.def_320 (and .def_158 .def_319))) (let ((.def_321 (and .def_5 A6))) (let ((.def_322 (= .def_321 .def_320))) (let ((.def_323 (not .def_322))) (let ((.def_324 (or .def_323 .def_317))) (let ((.def_325 (not .def_324))) (let ((.def_326 (and .def_325 .def_307))) (let ((.def_327 (not .def_326))) (let ((.def_328 (and .def_327 .def_284))) (let ((.def_329 (and .def_328 .def_251))) (let ((.def_330 (not .def_329))) (let ((.def_331 (and .def_330 .def_185))) (let ((.def_332 (not .def_331))) (let ((.def_333 (<= x9 1))) (let ((.def_334 (<= 0 x9))) (let ((.def_335 (<= x8 1))) (let ((.def_336 (<= 0 x8))) (let ((.def_337 (<= x7 1))) (let ((.def_338 (<= 0 x7))) (let ((.def_339 (<= x6 1))) (let ((.def_340 (<= 0 x6))) (let ((.def_341 (<= x5 1))) (let ((.def_342 (<= 0 x5))) (let ((.def_343 (<= x4 1))) (let ((.def_344 (<= 0 x4))) (let ((.def_345 (<= x3 1))) (let ((.def_346 (<= 0 x3))) (let ((.def_347 (<= x2 1))) (let ((.def_348 (<= 0 x2))) (let ((.def_349 (<= x1 1))) (let ((.def_350 (<= 0 x1))) (let ((.def_351 (<= x0 1))) (let ((.def_352 (<= 0 x0))) (let ((.def_353 (and .def_352 .def_351 .def_350 .def_349 .def_348 .def_347 .def_346 .def_345 .def_344 .def_343 .def_342 .def_341 .def_340 .def_339 .def_338 .def_337 .def_336 .def_335 .def_334 .def_333 .def_332))) .def_353)))))))))))))))))))))))))))))))))))))))))))))))))))))))))))))))))))))))))))))))))))))))))))))))))))))))))))))))))))))))))))))))))))))))))))))))))))))))))))))))))))))))))))))))))))))))))))))))))))))))))))))))))))))))))))))))))))))))))))))))))))))))))))))))))))))))))))))))))))))))))))))))))))))))))))))))))))))))))))))))))))))))))))))))))))))))))))))))))))
(check-sat)
